*SENSE:Maximize
NAME          MODEL
ROWS
 N  OBJ
 L  C0000000
COLUMNS
    MARK      'MARKER'                 'INTORG'
    X0000000  C0000000   4.860000000000e+03
    X0000000  OBJ        4.860000000000e+03
    MARK      'MARKER'                 'INTEND'
    MARK      'MARKER'                 'INTORG'
    X0000001  C0000000   4.860000000000e+03
    X0000001  OBJ        4.860000000000e+03
    MARK      'MARKER'                 'INTEND'
    MARK      'MARKER'                 'INTORG'
    X0000002  C0000000   4.860000000000e+03
    X0000002  OBJ        4.860000000000e+03
    MARK      'MARKER'                 'INTEND'
    MARK      'MARKER'                 'INTORG'
    X0000003  C0000000   4.860000000000e+03
    X0000003  OBJ        4.860000000000e+03
    MARK      'MARKER'                 'INTEND'
    MARK      'MARKER'                 'INTORG'
    X0000004  C0000000   4.860000000000e+03
    X0000004  OBJ        4.860000000000e+03
    MARK      'MARKER'                 'INTEND'
    MARK      'MARKER'                 'INTORG'
    X0000005  C0000000   4.860000000000e+03
    X0000005  OBJ        4.860000000000e+03
    MARK      'MARKER'                 'INTEND'
    MARK      'MARKER'                 'INTORG'
    X0000006  C0000000   4.860000000000e+03
    X0000006  OBJ        4.860000000000e+03
    MARK      'MARKER'                 'INTEND'
    MARK      'MARKER'                 'INTORG'
    X0000007  C0000000   4.860000000000e+03
    X0000007  OBJ        4.860000000000e+03
    MARK      'MARKER'                 'INTEND'
    MARK      'MARKER'                 'INTORG'
    X0000008  C0000000   4.860000000000e+03
    X0000008  OBJ        4.860000000000e+03
    MARK      'MARKER'                 'INTEND'
    MARK      'MARKER'                 'INTORG'
    X0000009  C0000000   4.860000000000e+03
    X0000009  OBJ        4.860000000000e+03
    MARK      'MARKER'                 'INTEND'
    MARK      'MARKER'                 'INTORG'
    X0000010  C0000000   4.860000000000e+03
    X0000010  OBJ        4.860000000000e+03
    MARK      'MARKER'                 'INTEND'
    MARK      'MARKER'                 'INTORG'
    X0000011  C0000000   4.860000000000e+03
    X0000011  OBJ        4.860000000000e+03
    MARK      'MARKER'                 'INTEND'
RHS
    RHS       C0000000   3.300000000000e+04
BOUNDS
 BV BND       X0000000
 BV BND       X0000001
 BV BND       X0000002
 BV BND       X0000003
 BV BND       X0000004
 BV BND       X0000005
 BV BND       X0000006
 BV BND       X0000007
 BV BND       X0000008
 BV BND       X0000009
 BV BND       X0000010
 BV BND       X0000011
ENDATA
